%BLOCK LATTICE_CART
ang    # angstrom units
  39.360000000000    0.000000000000     0.000000000000   
  0.000000000000     59.640000000000    0.000000000000   
  0.000000000000     0.000000000000     59.640000000000  
%ENDBLOCK LATTICE_CART

%BLOCK POSITIONS_FRAC
C      0.000000000000     0.005952500000     0.000000000000   
C      0.015625000000     0.023809650000     0.000000000000   
C      0.000000000000     0.029761800000     0.000000000000   
C      0.015625000000     0.011904650000     0.000000000000   
C      0.000000000000     0.005952500000     0.166666500000   
C      0.015625000000     0.023809650000     0.166666500000   
C      0.000000000000     0.029761800000     0.166666500000   
C      0.015625000000     0.011904650000     0.166666500000   
C      0.000000000000     0.005952500000     0.333333500000   
C      0.015625000000     0.023809650000     0.333333500000   
C      0.000000000000     0.029761800000     0.333333500000   
C      0.015625000000     0.011904650000     0.333333500000   
C      0.000000000000     0.041666800000     0.000000000000   
C      0.015625000000     0.059524000000     0.000000000000   
C      0.000000000000     0.065476000000     0.000000000000   
C      0.015625000000     0.047618950000     0.000000000000   
C      0.000000000000     0.041666800000     0.166666500000   
C      0.015625000000     0.059524000000     0.166666500000   
C      0.000000000000     0.065476000000     0.166666500000   
C      0.015625000000     0.047618950000     0.166666500000   
C      0.000000000000     0.041666800000     0.333333500000   
C      0.015625000000     0.059524000000     0.333333500000   
C      0.000000000000     0.065476000000     0.333333500000   
C      0.015625000000     0.047618950000     0.333333500000   
C      0.000000000000     0.077381000000     0.000000000000   
C      0.015625000000     0.095238000000     0.000000000000   
C      0.000000000000     0.101190500000     0.000000000000   
C      0.015625000000     0.083333000000     0.000000000000   
C      0.000000000000     0.077381000000     0.166666500000   
C      0.015625000000     0.095238000000     0.166666500000   
C      0.000000000000     0.101190500000     0.166666500000   
C      0.015625000000     0.083333000000     0.166666500000   
C      0.000000000000     0.077381000000     0.333333500000   
C      0.015625000000     0.095238000000     0.333333500000   
C      0.000000000000     0.101190500000     0.333333500000   
C      0.015625000000     0.083333000000     0.333333500000   
C      0.000000000000     0.113095500000     0.000000000000   
C      0.015625000000     0.130952500000     0.000000000000   
C      0.000000000000     0.136904500000     0.000000000000   
C      0.015625000000     0.119047500000     0.000000000000   
C      0.000000000000     0.113095500000     0.166666500000   
C      0.015625000000     0.130952500000     0.166666500000   
C      0.000000000000     0.136904500000     0.166666500000   
C      0.015625000000     0.119047500000     0.166666500000   
C      0.000000000000     0.113095500000     0.333333500000   
C      0.015625000000     0.130952500000     0.333333500000   
C      0.000000000000     0.136904500000     0.333333500000   
C      0.015625000000     0.119047500000     0.333333500000   
C      0.000000000000     0.148809500000     0.000000000000   
C      0.015625000000     0.166667000000     0.000000000000   
C      0.000000000000     0.172619000000     0.000000000000   
C      0.015625000000     0.154762000000     0.000000000000   
C      0.000000000000     0.148809500000     0.166666500000   
C      0.015625000000     0.166667000000     0.166666500000   
C      0.000000000000     0.172619000000     0.166666500000   
C      0.015625000000     0.154762000000     0.166666500000   
C      0.000000000000     0.148809500000     0.333333500000   
C      0.015625000000     0.166667000000     0.333333500000   
C      0.000000000000     0.172619000000     0.333333500000   
C      0.015625000000     0.154762000000     0.333333500000   
C      0.000000000000     0.184524000000     0.000000000000   
C      0.015625000000     0.202381000000     0.000000000000   
C      0.000000000000     0.208333000000     0.000000000000   
C      0.015625000000     0.190476000000     0.000000000000   
C      0.000000000000     0.184524000000     0.166666500000   
C      0.015625000000     0.202381000000     0.166666500000   
C      0.000000000000     0.208333000000     0.166666500000   
C      0.015625000000     0.190476000000     0.166666500000   
C      0.000000000000     0.184524000000     0.333333500000   
C      0.015625000000     0.202381000000     0.333333500000   
C      0.000000000000     0.208333000000     0.333333500000   
C      0.015625000000     0.190476000000     0.333333500000   
C      0.000000000000     0.220238000000     0.000000000000   
C      0.015625000000     0.238095500000     0.000000000000   
C      0.000000000000     0.244047500000     0.000000000000   
C      0.015625000000     0.226190500000     0.000000000000   
C      0.000000000000     0.220238000000     0.166666500000   
C      0.015625000000     0.238095500000     0.166666500000   
C      0.000000000000     0.244047500000     0.166666500000   
C      0.015625000000     0.226190500000     0.166666500000   
C      0.000000000000     0.220238000000     0.333333500000   
C      0.015625000000     0.238095500000     0.333333500000   
C      0.000000000000     0.244047500000     0.333333500000   
C      0.015625000000     0.226190500000     0.333333500000   
C      0.000000000000     0.255952500000     0.000000000000   
C      0.015625000000     0.273809500000     0.000000000000   
C      0.000000000000     0.279762000000     0.000000000000   
C      0.015625000000     0.261904500000     0.000000000000   
C      0.000000000000     0.255952500000     0.166666500000   
C      0.015625000000     0.273809500000     0.166666500000   
C      0.000000000000     0.279762000000     0.166666500000   
C      0.015625000000     0.261904500000     0.166666500000   
C      0.000000000000     0.255952500000     0.333333500000   
C      0.015625000000     0.273809500000     0.333333500000   
C      0.000000000000     0.279762000000     0.333333500000   
C      0.015625000000     0.261904500000     0.333333500000   
C      0.000000000000     0.291667000000     0.000000000000   
C      0.015625000000     0.309524000000     0.000000000000   
C      0.000000000000     0.315476000000     0.000000000000   
C      0.015625000000     0.297619000000     0.000000000000   
C      0.000000000000     0.291667000000     0.166666500000   
C      0.015625000000     0.309524000000     0.166666500000   
C      0.000000000000     0.315476000000     0.166666500000   
C      0.015625000000     0.297619000000     0.166666500000   
C      0.000000000000     0.291667000000     0.333333500000   
C      0.015625000000     0.309524000000     0.333333500000   
C      0.000000000000     0.315476000000     0.333333500000   
C      0.015625000000     0.297619000000     0.333333500000   
C      0.000000000000     0.327381000000     0.000000000000   
C      0.015625000000     0.345238000000     0.000000000000   
C      0.000000000000     0.351190500000     0.000000000000   
C      0.015625000000     0.333333000000     0.000000000000   
C      0.000000000000     0.327381000000     0.166666500000   
C      0.015625000000     0.345238000000     0.166666500000   
C      0.000000000000     0.351190500000     0.166666500000   
C      0.015625000000     0.333333000000     0.166666500000   
C      0.000000000000     0.327381000000     0.333333500000   
C      0.015625000000     0.345238000000     0.333333500000   
C      0.000000000000     0.351190500000     0.333333500000   
C      0.015625000000     0.333333000000     0.333333500000   
C      0.000000000000     0.363095500000     0.000000000000   
C      0.015625000000     0.380952500000     0.000000000000   
C      0.000000000000     0.386904500000     0.000000000000   
C      0.015625000000     0.369047500000     0.000000000000   
C      0.000000000000     0.363095500000     0.166666500000   
C      0.015625000000     0.380952500000     0.166666500000   
C      0.000000000000     0.386904500000     0.166666500000   
C      0.015625000000     0.369047500000     0.166666500000   
C      0.000000000000     0.363095500000     0.333333500000   
C      0.015625000000     0.380952500000     0.333333500000   
C      0.000000000000     0.386904500000     0.333333500000   
C      0.015625000000     0.369047500000     0.333333500000   
C      0.000000000000     0.398809500000     0.000000000000   
C      0.015625000000     0.416667000000     0.000000000000   
C      0.000000000000     0.422619000000     0.000000000000   
C      0.015625000000     0.404762000000     0.000000000000   
C      0.000000000000     0.398809500000     0.166666500000   
C      0.015625000000     0.416667000000     0.166666500000   
C      0.000000000000     0.422619000000     0.166666500000   
C      0.015625000000     0.404762000000     0.166666500000   
C      0.000000000000     0.398809500000     0.333333500000   
C      0.015625000000     0.416667000000     0.333333500000   
C      0.000000000000     0.422619000000     0.333333500000   
C      0.015625000000     0.404762000000     0.333333500000   
C      0.000000000000     0.434524000000     0.000000000000   
C      0.015625000000     0.452381000000     0.000000000000   
C      0.000000000000     0.458333000000     0.000000000000   
C      0.015625000000     0.440476000000     0.000000000000   
C      0.000000000000     0.434524000000     0.166666500000   
C      0.015625000000     0.452381000000     0.166666500000   
C      0.000000000000     0.458333000000     0.166666500000   
C      0.015625000000     0.440476000000     0.166666500000   
C      0.000000000000     0.434524000000     0.333333500000   
C      0.015625000000     0.452381000000     0.333333500000   
C      0.000000000000     0.458333000000     0.333333500000   
C      0.015625000000     0.440476000000     0.333333500000   
C      0.000000000000     0.470238000000     0.000000000000   
C      0.015625000000     0.488095500000     0.000000000000   
C      0.000000000000     0.494047500000     0.000000000000   
C      0.015625000000     0.476190500000     0.000000000000   
C      0.000000000000     0.470238000000     0.166666500000   
C      0.015625000000     0.488095500000     0.166666500000   
C      0.000000000000     0.494047500000     0.166666500000   
C      0.015625000000     0.476190500000     0.166666500000   
C      0.000000000000     0.470238000000     0.333333500000   
C      0.015625000000     0.488095500000     0.333333500000   
C      0.000000000000     0.494047500000     0.333333500000   
C      0.015625000000     0.476190500000     0.333333500000   
C      0.031250000000     0.005952500000     0.000000000000   
C      0.046875000000     0.023809650000     0.000000000000   
C      0.031250000000     0.029761800000     0.000000000000   
C      0.046875000000     0.011904650000     0.000000000000   
C      0.031250000000     0.005952500000     0.166666500000   
C      0.046875000000     0.023809650000     0.166666500000   
C      0.031250000000     0.029761800000     0.166666500000   
C      0.046875000000     0.011904650000     0.166666500000   
C      0.031250000000     0.005952500000     0.333333500000   
C      0.046875000000     0.023809650000     0.333333500000   
C      0.031250000000     0.029761800000     0.333333500000   
C      0.046875000000     0.011904650000     0.333333500000   
C      0.031250000000     0.041666800000     0.000000000000   
C      0.046875000000     0.059524000000     0.000000000000   
C      0.031250000000     0.065476000000     0.000000000000   
C      0.046875000000     0.047618950000     0.000000000000   
C      0.031250000000     0.041666800000     0.166666500000   
C      0.046875000000     0.059524000000     0.166666500000   
C      0.031250000000     0.065476000000     0.166666500000   
C      0.046875000000     0.047618950000     0.166666500000   
C      0.031250000000     0.041666800000     0.333333500000   
C      0.046875000000     0.059524000000     0.333333500000   
C      0.031250000000     0.065476000000     0.333333500000   
C      0.046875000000     0.047618950000     0.333333500000   
C      0.031250000000     0.077381000000     0.000000000000   
C      0.046875000000     0.095238000000     0.000000000000   
C      0.031250000000     0.101190500000     0.000000000000   
C      0.046875000000     0.083333000000     0.000000000000   
C      0.031250000000     0.077381000000     0.166666500000   
C      0.046875000000     0.095238000000     0.166666500000   
C      0.031250000000     0.101190500000     0.166666500000   
C      0.046875000000     0.083333000000     0.166666500000   
C      0.031250000000     0.077381000000     0.333333500000   
C      0.046875000000     0.095238000000     0.333333500000   
C      0.031250000000     0.101190500000     0.333333500000   
C      0.046875000000     0.083333000000     0.333333500000   
C      0.031250000000     0.113095500000     0.000000000000   
C      0.046875000000     0.130952500000     0.000000000000   
C      0.031250000000     0.136904500000     0.000000000000   
C      0.046875000000     0.119047500000     0.000000000000   
C      0.031250000000     0.113095500000     0.166666500000   
C      0.046875000000     0.130952500000     0.166666500000   
C      0.031250000000     0.136904500000     0.166666500000   
C      0.046875000000     0.119047500000     0.166666500000   
C      0.031250000000     0.113095500000     0.333333500000   
C      0.046875000000     0.130952500000     0.333333500000   
C      0.031250000000     0.136904500000     0.333333500000   
C      0.046875000000     0.119047500000     0.333333500000   
C      0.031250000000     0.148809500000     0.000000000000   
C      0.046875000000     0.166667000000     0.000000000000   
C      0.031250000000     0.172619000000     0.000000000000   
C      0.046875000000     0.154762000000     0.000000000000   
C      0.031250000000     0.148809500000     0.166666500000   
C      0.046875000000     0.166667000000     0.166666500000   
C      0.031250000000     0.172619000000     0.166666500000   
C      0.046875000000     0.154762000000     0.166666500000   
C      0.031250000000     0.148809500000     0.333333500000   
C      0.046875000000     0.166667000000     0.333333500000   
C      0.031250000000     0.172619000000     0.333333500000   
C      0.046875000000     0.154762000000     0.333333500000   
C      0.031250000000     0.184524000000     0.000000000000   
C      0.046875000000     0.202381000000     0.000000000000   
C      0.031250000000     0.208333000000     0.000000000000   
C      0.046875000000     0.190476000000     0.000000000000   
C      0.031250000000     0.184524000000     0.166666500000   
C      0.046875000000     0.202381000000     0.166666500000   
C      0.031250000000     0.208333000000     0.166666500000   
C      0.046875000000     0.190476000000     0.166666500000   
C      0.031250000000     0.184524000000     0.333333500000   
C      0.046875000000     0.202381000000     0.333333500000   
C      0.031250000000     0.208333000000     0.333333500000   
C      0.046875000000     0.190476000000     0.333333500000   
C      0.031250000000     0.220238000000     0.000000000000   
C      0.046875000000     0.238095500000     0.000000000000   
C      0.031250000000     0.244047500000     0.000000000000   
C      0.046875000000     0.226190500000     0.000000000000   
C      0.031250000000     0.220238000000     0.166666500000   
C      0.046875000000     0.238095500000     0.166666500000   
C      0.031250000000     0.244047500000     0.166666500000   
C      0.046875000000     0.226190500000     0.166666500000   
C      0.031250000000     0.220238000000     0.333333500000   
C      0.046875000000     0.238095500000     0.333333500000   
C      0.031250000000     0.244047500000     0.333333500000   
C      0.046875000000     0.226190500000     0.333333500000   
C      0.031250000000     0.255952500000     0.000000000000   
C      0.046875000000     0.273809500000     0.000000000000   
C      0.031250000000     0.279762000000     0.000000000000   
C      0.046875000000     0.261904500000     0.000000000000   
C      0.031250000000     0.255952500000     0.166666500000   
C      0.046875000000     0.273809500000     0.166666500000   
C      0.031250000000     0.279762000000     0.166666500000   
C      0.046875000000     0.261904500000     0.166666500000   
C      0.031250000000     0.255952500000     0.333333500000   
C      0.046875000000     0.273809500000     0.333333500000   
C      0.031250000000     0.279762000000     0.333333500000   
C      0.046875000000     0.261904500000     0.333333500000   
C      0.031250000000     0.291667000000     0.000000000000   
C      0.046875000000     0.309524000000     0.000000000000   
C      0.031250000000     0.315476000000     0.000000000000   
C      0.046875000000     0.297619000000     0.000000000000   
C      0.031250000000     0.291667000000     0.166666500000   
C      0.046875000000     0.309524000000     0.166666500000   
C      0.031250000000     0.315476000000     0.166666500000   
C      0.046875000000     0.297619000000     0.166666500000   
C      0.031250000000     0.291667000000     0.333333500000   
C      0.046875000000     0.309524000000     0.333333500000   
C      0.031250000000     0.315476000000     0.333333500000   
C      0.046875000000     0.297619000000     0.333333500000   
C      0.031250000000     0.327381000000     0.000000000000   
C      0.046875000000     0.345238000000     0.000000000000   
C      0.031250000000     0.351190500000     0.000000000000   
C      0.046875000000     0.333333000000     0.000000000000   
C      0.031250000000     0.327381000000     0.166666500000   
C      0.046875000000     0.345238000000     0.166666500000   
C      0.031250000000     0.351190500000     0.166666500000   
C      0.046875000000     0.333333000000     0.166666500000   
C      0.031250000000     0.327381000000     0.333333500000   
C      0.046875000000     0.345238000000     0.333333500000   
C      0.031250000000     0.351190500000     0.333333500000   
C      0.046875000000     0.333333000000     0.333333500000   
C      0.031250000000     0.363095500000     0.000000000000   
C      0.046875000000     0.380952500000     0.000000000000   
C      0.031250000000     0.386904500000     0.000000000000   
C      0.046875000000     0.369047500000     0.000000000000   
C      0.031250000000     0.363095500000     0.166666500000   
C      0.046875000000     0.380952500000     0.166666500000   
C      0.031250000000     0.386904500000     0.166666500000   
C      0.046875000000     0.369047500000     0.166666500000   
C      0.031250000000     0.363095500000     0.333333500000   
C      0.046875000000     0.380952500000     0.333333500000   
C      0.031250000000     0.386904500000     0.333333500000   
C      0.046875000000     0.369047500000     0.333333500000   
C      0.031250000000     0.398809500000     0.000000000000   
C      0.046875000000     0.416667000000     0.000000000000   
C      0.031250000000     0.422619000000     0.000000000000   
C      0.046875000000     0.404762000000     0.000000000000   
C      0.031250000000     0.398809500000     0.166666500000   
C      0.046875000000     0.416667000000     0.166666500000   
C      0.031250000000     0.422619000000     0.166666500000   
C      0.046875000000     0.404762000000     0.166666500000   
C      0.031250000000     0.398809500000     0.333333500000   
C      0.046875000000     0.416667000000     0.333333500000   
C      0.031250000000     0.422619000000     0.333333500000   
C      0.046875000000     0.404762000000     0.333333500000   
C      0.031250000000     0.434524000000     0.000000000000   
C      0.046875000000     0.452381000000     0.000000000000   
C      0.031250000000     0.458333000000     0.000000000000   
C      0.046875000000     0.440476000000     0.000000000000   
C      0.031250000000     0.434524000000     0.166666500000   
C      0.046875000000     0.452381000000     0.166666500000   
C      0.031250000000     0.458333000000     0.166666500000   
C      0.046875000000     0.440476000000     0.166666500000   
C      0.031250000000     0.434524000000     0.333333500000   
C      0.046875000000     0.452381000000     0.333333500000   
C      0.031250000000     0.458333000000     0.333333500000   
C      0.046875000000     0.440476000000     0.333333500000   
C      0.031250000000     0.470238000000     0.000000000000   
C      0.046875000000     0.488095500000     0.000000000000   
C      0.031250000000     0.494047500000     0.000000000000   
C      0.046875000000     0.476190500000     0.000000000000   
C      0.031250000000     0.470238000000     0.166666500000   
C      0.046875000000     0.488095500000     0.166666500000   
C      0.031250000000     0.494047500000     0.166666500000   
C      0.046875000000     0.476190500000     0.166666500000   
C      0.031250000000     0.470238000000     0.333333500000   
C      0.046875000000     0.488095500000     0.333333500000   
C      0.031250000000     0.494047500000     0.333333500000   
C      0.046875000000     0.476190500000     0.333333500000   
C      0.062500000000     0.005952500000     0.000000000000   
C      0.078125000000     0.023809650000     0.000000000000   
C      0.062500000000     0.029761800000     0.000000000000   
C      0.078125000000     0.011904650000     0.000000000000   
C      0.062500000000     0.005952500000     0.166666500000   
C      0.078125000000     0.023809650000     0.166666500000   
C      0.062500000000     0.029761800000     0.166666500000   
C      0.078125000000     0.011904650000     0.166666500000   
C      0.062500000000     0.005952500000     0.333333500000   
C      0.078125000000     0.023809650000     0.333333500000   
C      0.062500000000     0.029761800000     0.333333500000   
C      0.078125000000     0.011904650000     0.333333500000   
C      0.062500000000     0.041666800000     0.000000000000   
C      0.078125000000     0.059524000000     0.000000000000   
C      0.062500000000     0.065476000000     0.000000000000   
C      0.078125000000     0.047618950000     0.000000000000   
C      0.062500000000     0.041666800000     0.166666500000   
C      0.078125000000     0.059524000000     0.166666500000   
C      0.062500000000     0.065476000000     0.166666500000   
C      0.078125000000     0.047618950000     0.166666500000   
C      0.062500000000     0.041666800000     0.333333500000   
C      0.078125000000     0.059524000000     0.333333500000   
C      0.062500000000     0.065476000000     0.333333500000   
C      0.078125000000     0.047618950000     0.333333500000   
C      0.062500000000     0.077381000000     0.000000000000   
C      0.078125000000     0.095238000000     0.000000000000   
C      0.062500000000     0.101190500000     0.000000000000   
C      0.078125000000     0.083333000000     0.000000000000   
C      0.062500000000     0.077381000000     0.166666500000   
C      0.078125000000     0.095238000000     0.166666500000   
C      0.062500000000     0.101190500000     0.166666500000   
C      0.078125000000     0.083333000000     0.166666500000   
C      0.062500000000     0.077381000000     0.333333500000   
C      0.078125000000     0.095238000000     0.333333500000   
C      0.062500000000     0.101190500000     0.333333500000   
C      0.078125000000     0.083333000000     0.333333500000   
C      0.062500000000     0.113095500000     0.000000000000   
C      0.078125000000     0.130952500000     0.000000000000   
C      0.062500000000     0.136904500000     0.000000000000   
C      0.078125000000     0.119047500000     0.000000000000   
C      0.062500000000     0.113095500000     0.166666500000   
C      0.078125000000     0.130952500000     0.166666500000   
C      0.062500000000     0.136904500000     0.166666500000   
C      0.078125000000     0.119047500000     0.166666500000   
C      0.062500000000     0.113095500000     0.333333500000   
C      0.078125000000     0.130952500000     0.333333500000   
C      0.062500000000     0.136904500000     0.333333500000   
C      0.078125000000     0.119047500000     0.333333500000   
C      0.062500000000     0.148809500000     0.000000000000   
C      0.078125000000     0.166667000000     0.000000000000   
C      0.062500000000     0.172619000000     0.000000000000   
C      0.078125000000     0.154762000000     0.000000000000   
C      0.062500000000     0.148809500000     0.166666500000   
C      0.078125000000     0.166667000000     0.166666500000   
C      0.062500000000     0.172619000000     0.166666500000   
C      0.078125000000     0.154762000000     0.166666500000   
C      0.062500000000     0.148809500000     0.333333500000   
C      0.078125000000     0.166667000000     0.333333500000   
C      0.062500000000     0.172619000000     0.333333500000   
C      0.078125000000     0.154762000000     0.333333500000   
C      0.062500000000     0.184524000000     0.000000000000   
C      0.078125000000     0.202381000000     0.000000000000   
C      0.062500000000     0.208333000000     0.000000000000   
C      0.078125000000     0.190476000000     0.000000000000   
C      0.062500000000     0.184524000000     0.166666500000   
C      0.078125000000     0.202381000000     0.166666500000   
C      0.062500000000     0.208333000000     0.166666500000   
C      0.078125000000     0.190476000000     0.166666500000   
C      0.062500000000     0.184524000000     0.333333500000   
C      0.078125000000     0.202381000000     0.333333500000   
C      0.062500000000     0.208333000000     0.333333500000   
C      0.078125000000     0.190476000000     0.333333500000   
C      0.062500000000     0.220238000000     0.000000000000   
C      0.078125000000     0.238095500000     0.000000000000   
C      0.062500000000     0.244047500000     0.000000000000   
C      0.078125000000     0.226190500000     0.000000000000   
C      0.062500000000     0.220238000000     0.166666500000   
C      0.078125000000     0.238095500000     0.166666500000   
C      0.062500000000     0.244047500000     0.166666500000   
C      0.078125000000     0.226190500000     0.166666500000   
C      0.062500000000     0.220238000000     0.333333500000   
C      0.078125000000     0.238095500000     0.333333500000   
C      0.062500000000     0.244047500000     0.333333500000   
C      0.078125000000     0.226190500000     0.333333500000   
C      0.062500000000     0.255952500000     0.000000000000   
C      0.078125000000     0.273809500000     0.000000000000   
C      0.062500000000     0.279762000000     0.000000000000   
C      0.078125000000     0.261904500000     0.000000000000   
C      0.062500000000     0.255952500000     0.166666500000   
C      0.078125000000     0.273809500000     0.166666500000   
C      0.062500000000     0.279762000000     0.166666500000   
C      0.078125000000     0.261904500000     0.166666500000   
C      0.062500000000     0.255952500000     0.333333500000   
C      0.078125000000     0.273809500000     0.333333500000   
C      0.062500000000     0.279762000000     0.333333500000   
C      0.078125000000     0.261904500000     0.333333500000   
C      0.062500000000     0.291667000000     0.000000000000   
C      0.078125000000     0.309524000000     0.000000000000   
C      0.062500000000     0.315476000000     0.000000000000   
C      0.078125000000     0.297619000000     0.000000000000   
C      0.062500000000     0.291667000000     0.166666500000   
C      0.078125000000     0.309524000000     0.166666500000   
C      0.062500000000     0.315476000000     0.166666500000   
C      0.078125000000     0.297619000000     0.166666500000   
C      0.062500000000     0.291667000000     0.333333500000   
C      0.078125000000     0.309524000000     0.333333500000   
C      0.062500000000     0.315476000000     0.333333500000   
C      0.078125000000     0.297619000000     0.333333500000   
C      0.062500000000     0.327381000000     0.000000000000   
C      0.078125000000     0.345238000000     0.000000000000   
C      0.062500000000     0.351190500000     0.000000000000   
C      0.078125000000     0.333333000000     0.000000000000   
C      0.062500000000     0.327381000000     0.166666500000   
C      0.078125000000     0.345238000000     0.166666500000   
C      0.062500000000     0.351190500000     0.166666500000   
C      0.078125000000     0.333333000000     0.166666500000   
C      0.062500000000     0.327381000000     0.333333500000   
C      0.078125000000     0.345238000000     0.333333500000   
C      0.062500000000     0.351190500000     0.333333500000   
C      0.078125000000     0.333333000000     0.333333500000   
C      0.062500000000     0.363095500000     0.000000000000   
C      0.078125000000     0.380952500000     0.000000000000   
C      0.062500000000     0.386904500000     0.000000000000   
C      0.078125000000     0.369047500000     0.000000000000   
C      0.062500000000     0.363095500000     0.166666500000   
C      0.078125000000     0.380952500000     0.166666500000   
C      0.062500000000     0.386904500000     0.166666500000   
C      0.078125000000     0.369047500000     0.166666500000   
C      0.062500000000     0.363095500000     0.333333500000   
C      0.078125000000     0.380952500000     0.333333500000   
C      0.062500000000     0.386904500000     0.333333500000   
C      0.078125000000     0.369047500000     0.333333500000   
C      0.062500000000     0.398809500000     0.000000000000   
C      0.078125000000     0.416667000000     0.000000000000   
C      0.062500000000     0.422619000000     0.000000000000   
C      0.078125000000     0.404762000000     0.000000000000   