SimulationType                MonteCarlo
NumberOfCycles                5000
NumberOfInitializationCycles  1000
PrintEvery                    100
RestartFile                   no

Forcefield                    ExampleMoleculeForceField

Box 0
BoxLengths 30 30 30
ExternalTemperature 298.0
ExternalPressure 85.024e5
ComputeMolecularPressure yes

VolumeChangeProbability       0.05

Component 0 MoleculeName             propane
            MoleculeDefinition       ExampleDefinitions
            TranslationProbability   0.5
            RotationProbability      0.5
            ReinsertionProbability   0.5
            CreateNumberOfMolecules  256
