SimulationType                MonteCarlo
NumberOfCycles                5000
NumberOfInitializationCycles  2000
PrintEvery                    100
RestartFile                   no

Forcefield                    ExampleMoleculeForceField

Box 0
BoxLengths 100 100 100
ExternalTemperature 298.0
ExternalPressure 2.97e7
ComputeMolecularPressure yes

VolumeChangeProbability       0.05

Component 0 MoleculeName             methane
            MoleculeDefinition       ExampleDefinitions
            TranslationProbability   0.5
            RotationProbability      0.5
            ReinsertionProbability   0.5
            CreateNumberOfMolecules  256
