SimulationType                MonteCarlo
NumberOfCycles                1000
NumberOfInitializationCycles  500
PrintEvery                    100
RestartFile                   no

Forcefield                    Local
CutOffVDW                     11.8

Framework                     0
FrameworkName                 graphite-sheet-19.88A
UseChargesFromCIFFile         yes
RemoveAtomNumberCodeFromLabel yes
UnitCells                     2 2 2
HeliumVoidFraction            0.401506
ExternalTemperature           333.0
ExternalPressure              6.38e5

Component 0 MoleculeName              methane
            MoleculeDefinition        ExampleDefinitions
 
            IdealGasRosenbluthWeight  1.0
            FugacityCoefficient       1.0
            TranslationProbability    1.0
            RotationProbability       1.0
            ReinsertionProbability    1.0
            SwapProbability           1.0
            CreateNumberOfMolecules   0

